LEPSILON = .TRUE.
ISYM = 0

PREC = Accurate
NELMIN = 4

ISMEAR = 0
SIGMA = 0.01

LWAVE = .FALSE.
LCHARG = .FALSE.

NWRITE = 3
LSCALAPACK = .FALSE.
