Si O                                    
   5.0403498577086330     
     0.9668832549657413    0.0000000000000000    0.0000000000000000
    -0.4834416274828707    0.8373454612941184    0.0000000000000000
     0.0000000000000000    0.0000000000000000    1.0662334900685178
   Si   O 
     3     6
Direct
  0.4690874959723295  0.9950002277146803  0.6709345366162284
  0.9911985535589281  0.4591964646539368  0.3328637358875112
  0.5299632234514879  0.5344819275756355  0.0008095832646303
  0.1398739845117689  0.7454964179501461  0.5351413978853859
  0.2494600467543155  0.3711128593374113  0.2128748797894084
  0.6200115904963192  0.8878607926047193  0.9003024486977601
  0.4036344703718542  0.2866196596107867  0.7587981749877717
  0.8611347583580182  0.6100449566712204  0.1261643824868364
  0.7430007102908276  0.1187378718892075  0.4586304883865990

  0.25279976E-02 -0.75626284E-02  0.16276568E-02
  0.19216581E-03  0.95668553E-03 -0.43172647E-02
 -0.17209538E-02  0.35231515E-02  0.43110492E-02
 -0.31146704E-02  0.24506038E-02  0.79687059E-03
  0.16199341E-02  0.14064929E-02 -0.55954444E-02
  0.58819194E-03 -0.40701663E-02 -0.16301595E-02
 -0.27497458E-02 -0.39621182E-02 -0.12154276E-02
 -0.12002583E-02  0.30913405E-02  0.61349138E-02
  0.31026235E-02  0.64951096E-02 -0.13368892E-02

           1
   1.0000000000000000     
 -0.35537323E+00 -0.28159279E-01 -0.29309993E-01 -0.32663859E+00
  0.46871029E+00  0.99320835E+00  0.67123740E+00
  0.99135132E+00  0.45942314E+00  0.33206040E+00
  0.53002748E+00  0.53531670E+00  0.16117598E-02
  0.13952519E+00  0.74607706E+00  0.53528968E+00
  0.24995907E+00  0.37144611E+00  0.21183371E+00
  0.61965010E+00  0.88689642E+00  0.89999912E+00
  0.40260085E+00  0.28568088E+00  0.75857201E+00
  0.86125470E+00  0.61077741E+00  0.12730593E+00
  0.74440682E+00  0.12027681E+00  0.45838173E+00
  0.00000000E+00  0.00000000E+00  0.00000000E+00
  0.00000000E+00  0.00000000E+00  0.00000000E+00
  0.00000000E+00  0.00000000E+00  0.00000000E+00
  0.00000000E+00  0.00000000E+00  0.00000000E+00
  0.00000000E+00  0.00000000E+00  0.00000000E+00
  0.00000000E+00  0.00000000E+00  0.00000000E+00
  0.00000000E+00  0.00000000E+00  0.00000000E+00
  0.00000000E+00  0.00000000E+00  0.00000000E+00
  0.00000000E+00  0.00000000E+00  0.00000000E+00
  0.00000000E+00  0.00000000E+00  0.00000000E+00
  0.00000000E+00  0.00000000E+00  0.00000000E+00
  0.00000000E+00  0.00000000E+00  0.00000000E+00
  0.00000000E+00  0.00000000E+00  0.00000000E+00
  0.00000000E+00  0.00000000E+00  0.00000000E+00
  0.00000000E+00  0.00000000E+00  0.00000000E+00
  0.00000000E+00  0.00000000E+00  0.00000000E+00
  0.00000000E+00  0.00000000E+00  0.00000000E+00
  0.00000000E+00  0.00000000E+00  0.00000000E+00
