IBRION = 0
ISYM = 0
MDALGO = 2
SMASS = 0

POTIM = 1
NSW = 10000
EDIFF = 1E-6
PREC = Accurate
NELMIN = 4

TEBEG = 300
TEEND = 300

NWRITE = 2
NBLOCK = 1

NPAR = 4
LWAVE = .FALSE.
LCHARG = .FALSE.
LSCALAPACK = .FALSE.
