Si O                                    
   5.0403498577086330     
     0.9668832549657413    0.0000000000000000    0.0000000000000000
    -0.4834416274828707    0.8373454612941184    0.0000000000000000
     0.0000000000000000    0.0000000000000000    1.0662334900685178
   Si   O 
     3     6
Direct
  0.4538885126241176 -0.0093840576334202  0.6627478265320003
 -0.0060615619451899  0.4570098788877400  0.3305508822951187
  0.5470356639884242  0.5413157135480915 -0.0000809805278360
  0.1217325978292624  0.7184523716696880  0.5628442806972414
  0.2777788881691544  0.4078160311808409  0.2240624826110126
  0.5954226514429471  0.8821630718381595  0.9047001929523834
  0.3990939801259107  0.2651602962192027  0.7825110561089947
  0.8926096737260887  0.6221118818754400  0.1035180441404293
  0.7223799253983507  0.1237074094088097  0.4342689497846014

 -0.49574545E-02  0.37246273E-02  0.17375138E-02
  0.35809374E-03 -0.32943187E-03  0.78196532E-03
  0.29029817E-02 -0.11200865E-02  0.10466178E-02
  0.52677243E-02 -0.35339487E-02  0.25376053E-02
 -0.43394832E-02 -0.22282822E-02 -0.28402723E-02
  0.13788468E-02  0.58780427E-03 -0.40577560E-02
  0.24634034E-02  0.53801955E-02  0.53407507E-03
  0.16792237E-02 -0.54222604E-02 -0.26800307E-03
 -0.34720396E-02  0.12229643E-02 -0.21652635E-02

           1
   1.0000000000000000     
 -0.13577562E-01 -0.62193843E-02 -0.29922183E-02 -0.89717606E-02
  0.45331252E+00  0.99149845E+00  0.66307113E+00
  0.99397289E+00  0.45693182E+00  0.33069639E+00
  0.54749864E+00  0.54105032E+00  0.11376841E-03
  0.12239484E+00  0.71761505E+00  0.56331646E+00
  0.27662447E+00  0.40728807E+00  0.22353398E+00
  0.59577522E+00  0.88230234E+00  0.90394515E+00
  0.40023684E+00  0.26643507E+00  0.78261043E+00
  0.89231187E+00  0.62082714E+00  0.10346818E+00
  0.72181237E+00  0.12399718E+00  0.43386605E+00
  0.00000000E+00  0.00000000E+00  0.00000000E+00
  0.00000000E+00  0.00000000E+00  0.00000000E+00
  0.00000000E+00  0.00000000E+00  0.00000000E+00
  0.00000000E+00  0.00000000E+00  0.00000000E+00
  0.00000000E+00  0.00000000E+00  0.00000000E+00
  0.00000000E+00  0.00000000E+00  0.00000000E+00
  0.00000000E+00  0.00000000E+00  0.00000000E+00
  0.00000000E+00  0.00000000E+00  0.00000000E+00
  0.00000000E+00  0.00000000E+00  0.00000000E+00
  0.00000000E+00  0.00000000E+00  0.00000000E+00
  0.00000000E+00  0.00000000E+00  0.00000000E+00
  0.00000000E+00  0.00000000E+00  0.00000000E+00
  0.00000000E+00  0.00000000E+00  0.00000000E+00
  0.00000000E+00  0.00000000E+00  0.00000000E+00
  0.00000000E+00  0.00000000E+00  0.00000000E+00
  0.00000000E+00  0.00000000E+00  0.00000000E+00
  0.00000000E+00  0.00000000E+00  0.00000000E+00
  0.00000000E+00  0.00000000E+00  0.00000000E+00
